     Program CP v.7.1 starts on 30Apr2023 at  8: 2:50

     R & G space division:  proc/nbgrp/npool/nimage =       4

     GPU acceleration is ACTIVE.

     Reading input from ./cp.in
Warning: card  &CELL ignored
Warning: card CELL_DYNAMICS = 'NONE', ignored
Warning: card / ignored

   Job Title: ceo2

   Atomic Pseudopotentials Parameters

   Reading pseudopotential for specie #  1 from file :
   ./Zr.pbe-nsp-van.UPF
   file type is xml

   Reading pseudopotential for specie #  2 from file :
   ./O.pbe-van_bm.UPF
   file type is xml

   Main Simulation Parameters (from input)
   Restart Mode       =      -1   from_scratch
   Number of MD Steps =      10
   Print out every            5 MD Steps
   Reads from unit    =      61
   Writes to unit     =      -1
   MD Simulation time step            =       1.00
   Electronic fictitious mass (emass) =     800.00
   emass cut-off                      =       2.50

   Simulation Cell Parameters (from input)
   external pressure       =            0.00 [KBar]
   wmass (calculated)      =      4498116.07 [AU]
   ibrav =   14
   alat  =    38.50279900
   a1    =    38.50279900    0.00000000    0.00000000
   a2    =     0.00000000   41.00548094    0.00000000
   a3    =     0.00000000    0.00000000   52.94134863

   b1    =     0.02597214    0.00000000    0.00000000
   b2    =     0.00000000    0.02438698    0.00000000
   b3    =     0.00000000    0.00000000    0.01888883
   omega =   83585.16658446

   Energy Cut-offs
   Ecutwfc =   30.0 Ry,      Ecutrho =  200.0 Ry,      Ecuts =  120.0 Ry
   Gcutwfc =   33.6     ,    Gcutrho =   86.7          Gcuts =   67.1
   modified kinetic energy functional, with parameters:
   ecutz =  25.0000  ecsig =  5.0000  ecfix =  25.00
   NOTA BENE: refg, mmx =   0.050000  4800
   Eigenvalues calculated without the kinetic term contribution
   Orthog. with lagrange multipliers : eps =   0.20E-06,  max = 100
   verlet algorithm for electron dynamics
   with friction frice =  0.2000 , grease =  1.0000
   Electron dynamics : the temperature is not controlled
   initial random displacement of el. coordinates with  amplitude=  0.020000

   Electronic states
   Number of Electrons=  6336, of States =  3168
   Occupation numbers :
   2.00 2.00 2.00 2.00 2.00 2.00 2.00 2.00 2.00 2.00
   2.00 2.00 2.00 2.00 2.00 2.00 2.00 2.00 2.00 2.00
   2.00 2.00 2.00 2.00 2.00 2.00 2.00 2.00 2.00 2.00
   2.00 2.00 2.00 2.00 2.00 2.00 2.00 2.00 2.00 2.00
   2.00 2.00 2.00 2.00 2.00 2.00 2.00 2.00 2.00 2.00
   2.00 2.00 2.00 2.00 2.00 2.00 2.00 2.00 2.00 2.00
   2.00 2.00 2.00 2.00 2.00 2.00 2.00 2.00 2.00 2.00
   2.00 2.00 2.00 2.00 2.00 2.00 2.00 2.00 2.00 2.00
   2.00 2.00 2.00 2.00 2.00 2.00 2.00 2.00 2.00 2.00
   2.00 2.00 2.00 2.00 2.00 2.00 2.00 2.00 2.00 2.00
   2.00 2.00 2.00 2.00 2.00 2.00 2.00 2.00 2.00 2.00
   2.00 2.00 2.00 2.00 2.00 2.00 2.00 2.00 2.00 2.00
   2.00 2.00 2.00 2.00 2.00 2.00 2.00 2.00 2.00 2.00
   2.00 2.00 2.00 2.00 2.00 2.00 2.00 2.00 2.00 2.00
   2.00 2.00 2.00 2.00 2.00 2.00 2.00 2.00 2.00 2.00
   2.00 2.00 2.00 2.00 2.00 2.00 2.00 2.00 2.00 2.00
   2.00 2.00 2.00 2.00 2.00 2.00 2.00 2.00 2.00 2.00
   2.00 2.00 2.00 2.00 2.00 2.00 2.00 2.00 2.00 2.00
   2.00 2.00 2.00 2.00 2.00 2.00 2.00 2.00 2.00 2.00
   2.00 2.00 2.00 2.00 2.00 2.00 2.00 2.00 2.00 2.00
   2.00 2.00 2.00 2.00 2.00 2.00 2.00 2.00 2.00 2.00
   2.00 2.00 2.00 2.00 2.00 2.00 2.00 2.00 2.00 2.00
   2.00 2.00 2.00 2.00 2.00 2.00 2.00 2.00 2.00 2.00
   2.00 2.00 2.00 2.00 2.00 2.00 2.00 2.00 2.00 2.00
   2.00 2.00 2.00 2.00 2.00 2.00 2.00 2.00 2.00 2.00
   2.00 2.00 2.00 2.00 2.00 2.00 2.00 2.00 2.00 2.00
   2.00 2.00 2.00 2.00 2.00 2.00 2.00 2.00 2.00 2.00
   2.00 2.00 2.00 2.00 2.00 2.00 2.00 2.00 2.00 2.00
   2.00 2.00 2.00 2.00 2.00 2.00 2.00 2.00 2.00 2.00
   2.00 2.00 2.00 2.00 2.00 2.00 2.00 2.00 2.00 2.00
   2.00 2.00 2.00 2.00 2.00 2.00 2.00 2.00 2.00 2.00
   2.00 2.00 2.00 2.00 2.00 2.00 2.00 2.00 2.00 2.00
   2.00 2.00 2.00 2.00 2.00 2.00 2.00 2.00 2.00 2.00
   2.00 2.00 2.00 2.00 2.00 2.00 2.00 2.00 2.00 2.00
   2.00 2.00 2.00 2.00 2.00 2.00 2.00 2.00 2.00 2.00
   2.00 2.00 2.00 2.00 2.00 2.00 2.00 2.00 2.00 2.00
   2.00 2.00 2.00 2.00 2.00 2.00 2.00 2.00 2.00 2.00
   2.00 2.00 2.00 2.00 2.00 2.00 2.00 2.00 2.00 2.00
   2.00 2.00 2.00 2.00 2.00 2.00 2.00 2.00 2.00 2.00
   2.00 2.00 2.00 2.00 2.00 2.00 2.00 2.00 2.00 2.00
   2.00 2.00 2.00 2.00 2.00 2.00 2.00 2.00 2.00 2.00
   2.00 2.00 2.00 2.00 2.00 2.00 2.00 2.00 2.00 2.00
   2.00 2.00 2.00 2.00 2.00 2.00 2.00 2.00 2.00 2.00
   2.00 2.00 2.00 2.00 2.00 2.00 2.00 2.00 2.00 2.00
   2.00 2.00 2.00 2.00 2.00 2.00 2.00 2.00 2.00 2.00
   2.00 2.00 2.00 2.00 2.00 2.00 2.00 2.00 2.00 2.00
   2.00 2.00 2.00 2.00 2.00 2.00 2.00 2.00 2.00 2.00
   2.00 2.00 2.00 2.00 2.00 2.00 2.00 2.00 2.00 2.00
   2.00 2.00 2.00 2.00 2.00 2.00 2.00 2.00 2.00 2.00
   2.00 2.00 2.00 2.00 2.00 2.00 2.00 2.00 2.00 2.00
   2.00 2.00 2.00 2.00 2.00 2.00 2.00 2.00 2.00 2.00
   2.00 2.00 2.00 2.00 2.00 2.00 2.00 2.00 2.00 2.00
   2.00 2.00 2.00 2.00 2.00 2.00 2.00 2.00 2.00 2.00
   2.00 2.00 2.00 2.00 2.00 2.00 2.00 2.00 2.00 2.00
   2.00 2.00 2.00 2.00 2.00 2.00 2.00 2.00 2.00 2.00
   2.00 2.00 2.00 2.00 2.00 2.00 2.00 2.00 2.00 2.00
   2.00 2.00 2.00 2.00 2.00 2.00 2.00 2.00 2.00 2.00
   2.00 2.00 2.00 2.00 2.00 2.00 2.00 2.00 2.00 2.00
   2.00 2.00 2.00 2.00 2.00 2.00 2.00 2.00 2.00 2.00
   2.00 2.00 2.00 2.00 2.00 2.00 2.00 2.00 2.00 2.00
[...]
   2.00 2.00 2.00 2.00 2.00 2.00 2.00 2.00 2.00 2.00
   2.00 2.00 2.00 2.00 2.00 2.00 2.00 2.00 2.00 2.00
   2.00 2.00 2.00 2.00 2.00 2.00 2.00 2.00 2.00 2.00
   2.00 2.00 2.00 2.00 2.00 2.00 2.00 2.00 2.00 2.00
   2.00 2.00 2.00 2.00 2.00 2.00 2.00 2.00 2.00 2.00
   2.00 2.00 2.00 2.00 2.00 2.00 2.00 2.00 2.00 2.00
   2.00 2.00 2.00 2.00 2.00 2.00 2.00 2.00 2.00 2.00
   2.00 2.00 2.00 2.00 2.00 2.00 2.00 2.00 2.00 2.00
   2.00 2.00 2.00 2.00 2.00 2.00 2.00 2.00 2.00 2.00
   2.00 2.00 2.00 2.00 2.00 2.00 2.00 2.00 2.00 2.00
   2.00 2.00 2.00 2.00 2.00 2.00 2.00 2.00 2.00 2.00
   2.00 2.00 2.00 2.00 2.00 2.00 2.00 2.00 2.00 2.00
   2.00 2.00 2.00 2.00 2.00 2.00 2.00 2.00 2.00 2.00
   2.00 2.00 2.00 2.00 2.00 2.00 2.00 2.00 2.00 2.00
   2.00 2.00 2.00 2.00 2.00 2.00 2.00 2.00

   Exchange and correlations functionals
     Exchange-correlation= SLA  PW   PBE  PBE
                           (   1   4   3   4   0   0   0)

   Ions Simulation Parameters
   Ions are not allowed to move
   Ionic position (from input)
   sorted by specie, and converted to real a.u. coordinates
   Species   1 atoms =  264 mass =    165882.85 (a.u.),        91.00 (amu) rcmax =   0.80 (a.u.)
        0.000000    20.488879     9.795392
        0.000000    27.323128     9.795392
        0.000000    34.157371     9.795392
        0.000000    40.991614     9.795392
        0.000000     6.820394     9.795392
        0.000000    13.654637     9.795392
       19.251392    20.488879     9.795392
       19.251392    27.323128     9.795392
       19.251392    34.157371     9.795392
       19.251392    40.991614     9.795392
       19.251392     6.820394     9.795392
       19.251392    13.654637     9.795392
       28.877089    20.488879     9.795392
       28.877089    27.323128     9.795392
       28.877089    34.157371     9.795392
       28.877089    40.991614     9.795392
       28.877089     6.820394     9.795392
       28.877089    13.654637     9.795392
        9.625696    20.488879     9.795392
        9.625696    27.323128     9.795392
        9.625696    34.157371     9.795392
        9.625696    40.991614     9.795392
        9.625696     6.820394     9.795392
        9.625696    13.654637     9.795392
       24.064240    23.915322    12.332928
       24.064240    30.749568    12.332928
       24.064240     3.412590    12.332928
       24.064240    37.583811    12.332928
       24.064240    10.246834    12.332928
       24.064240    17.081079    12.332928
       33.689935    23.915322    12.332928
       33.689935    30.749568    12.332928
       33.689935     3.412590    12.332928
       33.689935    37.583811    12.332928
       33.689935    10.246834    12.332928
       33.689935    17.081079    12.332928
        4.812848    23.915322    12.332928
        4.812848    30.749568    12.332928
        4.812848     3.412590    12.332928
        4.812848    37.583811    12.332928
        4.812848    10.246834    12.332928
        4.812848    17.081079    12.332928
       14.438544    23.915322    12.332928
       14.438544    30.749568    12.332928
       14.438544     3.412590    12.332928
       14.438544    37.583811    12.332928
       14.438544    10.246834    12.332928
       14.438544    17.081079    12.332928
        0.000000    20.490415    16.261336
        0.000000    27.324661    16.261336
        0.000000    34.158899    16.261336
        0.000000    40.993145    16.261336
        0.000000     6.821924    16.261336
        0.000000    13.656172    16.261336
       19.251392    20.490415    16.261336
       19.251392    27.324661    16.261336
       19.251392    34.158899    16.261336
       19.251392    40.993145    16.261336
       19.251392     6.821924    16.261336
       19.251392    13.656172    16.261336
[...]
       19.251392    40.991614    42.556604
       19.251392     6.820394    42.556604
       19.251392    13.654637    42.556604
       28.877089    20.488879    42.556604
       28.877089    27.323128    42.556604
       28.877089    34.157371    42.556604
       28.877089    40.991614    42.556604
       28.877089     6.820394    42.556604
       28.877089    13.654637    42.556604
        9.625696    20.488879    42.556604
        9.625696    27.323128    42.556604
        9.625696    34.157371    42.556604
        9.625696    40.991614    42.556604
        9.625696     6.820394    42.556604
        9.625696    13.654637    42.556604
   Species   2 atoms =  528 mass =     29166.22 (a.u.),        16.00 (amu) rcmax =   0.50 (a.u.)
       21.555004    23.915250     9.291180
       21.555004    30.749493     9.291180
       21.555004     3.412517     9.291180
       21.555004    37.583736     9.291180
       21.555004    10.246762     9.291180
       21.555004    17.081005     9.291180
        2.303613    23.915250     9.291180
        2.303613    30.749493     9.291180
        2.303613     3.412517     9.291180
        2.303613    37.583736     9.291180
        2.303613    10.246762     9.291180
        2.303613    17.081005     9.291180
       26.573477    23.915250     9.291180
       26.573477    30.749493     9.291180
       26.573477     3.412517     9.291180
       26.573477    37.583736     9.291180
       26.573477    10.246762     9.291180
       26.573477    17.081005     9.291180
       31.180701    23.915250     9.291180
       31.180701    30.749493     9.291180
       31.180701     3.412517     9.291180
       31.180701    37.583736     9.291180
       31.180701    10.246762     9.291180
       31.180701    17.081005     9.291180
       36.199172    23.915250     9.291180
       36.199172    30.749493     9.291180
       36.199172     3.412517     9.291180
       36.199172    37.583736     9.291180
       36.199172    10.246762     9.291180
[...]
  -80.14  -80.06  -79.89  -79.85  -79.81  -79.55  -79.37  -79.35  -79.31  -79.24
  -79.01  -78.99  -78.93  -78.86  -78.66  -78.53  -78.42  -78.35  -78.14  -77.96
  -77.87  -77.82  -77.75  -77.65  -77.61  -77.46  -77.29  -77.24  -77.12  -77.06
  -76.93  -76.85  -76.66  -76.56  -76.38  -76.29  -76.16  -76.14  -76.05  -75.87
  -75.82  -75.74  -75.60  -75.57  -75.54  -75.30  -75.24  -75.13  -74.99  -74.90
  -74.79  -74.75  -74.63  -74.61  -74.34  -74.27  -74.06  -73.93  -73.77  -73.76
[...]
   99.75   99.83   99.95  100.08  100.16  100.18  100.27  100.37  100.41  100.57
  100.75  100.93  101.00  101.07  101.21  101.28  101.35  101.47  101.55  101.71
  101.82  101.95  102.00  102.12  102.22  102.36  102.46  102.62  102.71  102.79
  102.97  103.11  103.31  103.37  103.42  103.62  103.80  104.08  104.22  104.26
  104.38  104.49  104.61  104.68  104.77  105.05  105.25  105.33  105.42  105.50
  105.81  105.87  105.99  106.03  106.28  106.33  106.36  106.52  106.66  106.74
  106.95  107.05  107.10  107.32  107.56  107.60  107.95  108.10  108.13  108.20
  108.48  108.60  108.80  109.02  109.23  109.49  109.57  109.70  109.85  110.00
  110.35  110.55  110.78  111.07  111.28  111.34  111.49  111.79  112.01  112.60
  112.87  113.02  113.53  113.74  114.26  114.83  115.04  115.66  116.03  116.21
  116.68  116.98  117.33  117.57  118.07  118.18  118.41  118.94  119.11  119.49
  119.59  120.09  120.46  120.97  121.44  121.59  121.94  122.09  122.60  123.01
  124.36  124.69  125.04  126.00  127.15  127.98  129.45  130.18  131.45  134.48
  135.60  136.78  139.13  140.45  141.13  143.52  143.65  146.34  148.65  149.71
  150.64  151.79  152.68  154.58  155.24  156.06  157.37  157.93

   CELL_PARAMETERS
   38.50279900    0.00000000    0.00000000
    0.00000000   41.00548094    0.00000000
    0.00000000    0.00000000   52.94134863

   System Density [g/cm^3] :              4.3534576058

   System Volume [A.U.^3] :          83585.1665844590

   Center of mass square displacement (a.u.):   0.000000

   ATOMIC_POSITIONS
   O       0.21555003991075E+02     0.23915249531257E+02     0.92911801787724E+01
   O       0.21555003991075E+02     0.30749492532441E+02     0.92911801787724E+01
   O       0.21555003991075E+02     0.34125169221072E+01     0.92911801787724E+01
   O       0.21555003991075E+02     0.37583735533626E+02     0.92911801787724E+01
   O       0.21555003991075E+02     0.10246761726090E+02     0.92911801787724E+01
   O       0.21555003991075E+02     0.17081004727274E+02     0.92911801787724E+01
   O       0.23036126062947E+01     0.23915249531257E+02     0.92911801787724E+01
   O       0.23036126062947E+01     0.30749492532441E+02     0.92911801787724E+01
   O       0.23036126062947E+01     0.34125169221072E+01     0.92911801787724E+01
   O       0.23036126062947E+01     0.37583735533626E+02     0.92911801787724E+01
   O       0.23036126062947E+01     0.10246761726090E+02     0.92911801787724E+01
   O       0.23036126062947E+01     0.17081004727274E+02     0.92911801787724E+01
   O       0.26573477062635E+02     0.23915249531257E+02     0.92911801787724E+01
   O       0.26573477062635E+02     0.30749492532441E+02     0.92911801787724E+01
   O       0.26573477062635E+02     0.34125169221072E+01     0.92911801787724E+01
   O       0.26573477062635E+02     0.37583735533626E+02     0.92911801787724E+01
   O       0.26573477062635E+02     0.10246761726090E+02     0.92911801787724E+01
   O       0.26573477062635E+02     0.17081004727274E+02     0.92911801787724E+01
   O       0.31180700922180E+02     0.23915249531257E+02     0.92911801787724E+01
   O       0.31180700922180E+02     0.30749492532441E+02     0.92911801787724E+01
   O       0.31180700922180E+02     0.34125169221072E+01     0.92911801787724E+01
   O       0.31180700922180E+02     0.37583735533626E+02     0.92911801787724E+01
   O       0.31180700922180E+02     0.10246761726090E+02     0.92911801787724E+01
   O       0.31180700922180E+02     0.17081004727274E+02     0.92911801787724E+01
   O       0.36199172192831E+02     0.23915249531257E+02     0.92911801787724E+01
   O       0.36199172192831E+02     0.30749492532441E+02     0.92911801787724E+01
   O       0.36199172192831E+02     0.34125169221072E+01     0.92911801787724E+01
   O       0.36199172192831E+02     0.37583735533626E+02     0.92911801787724E+01
   O       0.36199172192831E+02     0.10246761726090E+02     0.92911801787724E+01
   O       0.36199172192831E+02     0.17081004727274E+02     0.92911801787724E+01
   O       0.73220850013328E+01     0.23915249531257E+02     0.92911801787724E+01
   O       0.73220850013328E+01     0.30749492532441E+02     0.92911801787724E+01
   O       0.73220850013328E+01     0.34125169221072E+01     0.92911801787724E+01
   O       0.73220850013328E+01     0.37583735533626E+02     0.92911801787724E+01
   O       0.73220850013328E+01     0.10246761726090E+02     0.92911801787724E+01
   O       0.73220850013328E+01     0.17081004727274E+02     0.92911801787724E+01
   O       0.11929308860878E+02     0.23915249531257E+02     0.92911801787724E+01
   O       0.11929308860878E+02     0.30749492532441E+02     0.92911801787724E+01
   O       0.11929308860878E+02     0.34125169221072E+01     0.92911801787724E+01
   O       0.11929308860878E+02     0.37583735533626E+02     0.92911801787724E+01
   O       0.11929308860878E+02     0.10246761726090E+02     0.92911801787724E+01
   O       0.11929308860878E+02     0.17081004727274E+02     0.92911801787724E+01
   O       0.16947781932438E+02     0.23915249531257E+02     0.92911801787724E+01
   O       0.16947781932438E+02     0.30749492532441E+02     0.92911801787724E+01
   O       0.16947781932438E+02     0.34125169221072E+01     0.92911801787724E+01
   O       0.16947781932438E+02     0.37583735533626E+02     0.92911801787724E+01
   O       0.16947781932438E+02     0.10246761726090E+02     0.92911801787724E+01
   O       0.16947781932438E+02     0.17081004727274E+02     0.92911801787724E+01
   Zr      0.00000000000000E+00     0.20488879225352E+02     0.97953923113105E+01
   Zr      0.00000000000000E+00     0.27323127633042E+02     0.97953923113105E+01
   Zr      0.00000000000000E+00     0.34157370634226E+02     0.97953923113105E+01
   Zr      0.00000000000000E+00     0.40991613635411E+02     0.97953923113105E+01
   Zr      0.00000000000000E+00     0.68203941243826E+01     0.97953923113105E+01
   Zr      0.00000000000000E+00     0.13654637125567E+02     0.97953923113105E+01
   Zr      0.19251392061302E+02     0.20488879225352E+02     0.97953923113105E+01
   Zr      0.19251392061302E+02     0.27323127633042E+02     0.97953923113105E+01
   Zr      0.19251392061302E+02     0.34157370634226E+02     0.97953923113105E+01
   Zr      0.19251392061302E+02     0.40991613635411E+02     0.97953923113105E+01
   Zr      0.19251392061302E+02     0.68203941243826E+01     0.97953923113105E+01
   Zr      0.19251392061302E+02     0.13654637125567E+02     0.97953923113105E+01
[...]
   O       0.73220791450716E+01     0.37583735533626E+02     0.43060804774862E+02
   O       0.73220791450716E+01     0.10246761726090E+02     0.43060804774862E+02
   O       0.73220791450716E+01     0.17081006530073E+02     0.43060804774862E+02
   O       0.11929314267385E+02     0.23915249531257E+02     0.43060804774862E+02
   O       0.11929314267385E+02     0.30749492532441E+02     0.43060804774862E+02
   O       0.11929314267385E+02     0.34125175986292E+01     0.43060804774862E+02
   O       0.11929314267385E+02     0.37583735533626E+02     0.43060804774862E+02
   O       0.11929314267385E+02     0.10246761726090E+02     0.43060804774862E+02
   O       0.11929314267385E+02     0.17081006530073E+02     0.43060804774862E+02
   O       0.16947774725023E+02     0.23915249531257E+02     0.43060804774862E+02
   O       0.16947774725023E+02     0.30749492532441E+02     0.43060804774862E+02
   O       0.16947774725023E+02     0.34125175986292E+01     0.43060804774862E+02
   O       0.16947774725023E+02     0.37583735533626E+02     0.43060804774862E+02
   O       0.16947774725023E+02     0.10246761726090E+02     0.43060804774862E+02
   O       0.16947774725023E+02     0.17081006530073E+02     0.43060804774862E+02

   ATOMIC_VELOCITIES
   O       0.00000000000000E+00     0.00000000000000E+00     0.00000000000000E+00
   O       0.00000000000000E+00     0.00000000000000E+00     0.00000000000000E+00
   O       0.00000000000000E+00     0.00000000000000E+00     0.00000000000000E+00
   O       0.00000000000000E+00     0.00000000000000E+00     0.00000000000000E+00
   O       0.00000000000000E+00     0.00000000000000E+00     0.00000000000000E+00
   O       0.00000000000000E+00     0.00000000000000E+00     0.00000000000000E+00
   O       0.00000000000000E+00     0.00000000000000E+00     0.00000000000000E+00
   O       0.00000000000000E+00     0.00000000000000E+00     0.00000000000000E+00
   O       0.00000000000000E+00     0.00000000000000E+00     0.00000000000000E+00
   O       0.00000000000000E+00     0.00000000000000E+00     0.00000000000000E+00
   O       0.00000000000000E+00     0.00000000000000E+00     0.00000000000000E+00
   O       0.00000000000000E+00     0.00000000000000E+00     0.00000000000000E+00
   O       0.00000000000000E+00     0.00000000000000E+00     0.00000000000000E+00
   O       0.00000000000000E+00     0.00000000000000E+00     0.00000000000000E+00
   O       0.00000000000000E+00     0.00000000000000E+00     0.00000000000000E+00
   O       0.00000000000000E+00     0.00000000000000E+00     0.00000000000000E+00
   O       0.00000000000000E+00     0.00000000000000E+00     0.00000000000000E+00
   O       0.00000000000000E+00     0.00000000000000E+00     0.00000000000000E+00
   O       0.00000000000000E+00     0.00000000000000E+00     0.00000000000000E+00
   O       0.00000000000000E+00     0.00000000000000E+00     0.00000000000000E+00
   O       0.00000000000000E+00     0.00000000000000E+00     0.00000000000000E+00
   O       0.00000000000000E+00     0.00000000000000E+00     0.00000000000000E+00
   O       0.00000000000000E+00     0.00000000000000E+00     0.00000000000000E+00
   O       0.00000000000000E+00     0.00000000000000E+00     0.00000000000000E+00
   O       0.00000000000000E+00     0.00000000000000E+00     0.00000000000000E+00
   O       0.00000000000000E+00     0.00000000000000E+00     0.00000000000000E+00
   O       0.00000000000000E+00     0.00000000000000E+00     0.00000000000000E+00
   O       0.00000000000000E+00     0.00000000000000E+00     0.00000000000000E+00
   O       0.00000000000000E+00     0.00000000000000E+00     0.00000000000000E+00
   O       0.00000000000000E+00     0.00000000000000E+00     0.00000000000000E+00
   O       0.00000000000000E+00     0.00000000000000E+00     0.00000000000000E+00
   O       0.00000000000000E+00     0.00000000000000E+00     0.00000000000000E+00
   O       0.00000000000000E+00     0.00000000000000E+00     0.00000000000000E+00
   O       0.00000000000000E+00     0.00000000000000E+00     0.00000000000000E+00
   O       0.00000000000000E+00     0.00000000000000E+00     0.00000000000000E+00
   O       0.00000000000000E+00     0.00000000000000E+00     0.00000000000000E+00
   O       0.00000000000000E+00     0.00000000000000E+00     0.00000000000000E+00
   O       0.00000000000000E+00     0.00000000000000E+00     0.00000000000000E+00
   O       0.00000000000000E+00     0.00000000000000E+00     0.00000000000000E+00
   O       0.00000000000000E+00     0.00000000000000E+00     0.00000000000000E+00
   O       0.00000000000000E+00     0.00000000000000E+00     0.00000000000000E+00
   O       0.00000000000000E+00     0.00000000000000E+00     0.00000000000000E+00
   O       0.00000000000000E+00     0.00000000000000E+00     0.00000000000000E+00
   O       0.00000000000000E+00     0.00000000000000E+00     0.00000000000000E+00
   O       0.00000000000000E+00     0.00000000000000E+00     0.00000000000000E+00
   O       0.00000000000000E+00     0.00000000000000E+00     0.00000000000000E+00
   O       0.00000000000000E+00     0.00000000000000E+00     0.00000000000000E+00
   O       0.00000000000000E+00     0.00000000000000E+00     0.00000000000000E+00
   Zr      0.00000000000000E+00     0.00000000000000E+00     0.00000000000000E+00
   Zr      0.00000000000000E+00     0.00000000000000E+00     0.00000000000000E+00
   Zr      0.00000000000000E+00     0.00000000000000E+00     0.00000000000000E+00
   Zr      0.00000000000000E+00     0.00000000000000E+00     0.00000000000000E+00
   Zr      0.00000000000000E+00     0.00000000000000E+00     0.00000000000000E+00
   Zr      0.00000000000000E+00     0.00000000000000E+00     0.00000000000000E+00
   Zr      0.00000000000000E+00     0.00000000000000E+00     0.00000000000000E+00
   Zr      0.00000000000000E+00     0.00000000000000E+00     0.00000000000000E+00
   Zr      0.00000000000000E+00     0.00000000000000E+00     0.00000000000000E+00
   Zr      0.00000000000000E+00     0.00000000000000E+00     0.00000000000000E+00
   Zr      0.00000000000000E+00     0.00000000000000E+00     0.00000000000000E+00
   Zr      0.00000000000000E+00     0.00000000000000E+00     0.00000000000000E+00
[...]
   O       0.00000000000000E+00     0.00000000000000E+00     0.00000000000000E+00
   O       0.00000000000000E+00     0.00000000000000E+00     0.00000000000000E+00
   O       0.00000000000000E+00     0.00000000000000E+00     0.00000000000000E+00
   O       0.00000000000000E+00     0.00000000000000E+00     0.00000000000000E+00
   O       0.00000000000000E+00     0.00000000000000E+00     0.00000000000000E+00
   O       0.00000000000000E+00     0.00000000000000E+00     0.00000000000000E+00
   O       0.00000000000000E+00     0.00000000000000E+00     0.00000000000000E+00
   O       0.00000000000000E+00     0.00000000000000E+00     0.00000000000000E+00
   O       0.00000000000000E+00     0.00000000000000E+00     0.00000000000000E+00
   O       0.00000000000000E+00     0.00000000000000E+00     0.00000000000000E+00
   O       0.00000000000000E+00     0.00000000000000E+00     0.00000000000000E+00
   O       0.00000000000000E+00     0.00000000000000E+00     0.00000000000000E+00
   O       0.00000000000000E+00     0.00000000000000E+00     0.00000000000000E+00
   O       0.00000000000000E+00     0.00000000000000E+00     0.00000000000000E+00
   O       0.00000000000000E+00     0.00000000000000E+00     0.00000000000000E+00

   Partial temperatures (for each ionic specie)
   Species  Temp (K)   Mean Square Displacement (a.u.)
        1   0.00E+00     0.0000E+00
        2   0.00E+00     0.0000E+00
     10 1074.442394652846588    0.0    0.00   -5444.128473007465   -5444.128473007465   -5444.128473007465   -4369.686078354618   0.0000   0.0000   0.0000   0.0000

   Averaged Physical Quantities
                      accumulated      this run
   ekinc         :     7520.40210    7520.40210 (AU)
   ekin          :    11137.95413   11137.95413 (AU)
   epot          :    -2197.06452   -2197.06452 (AU)
   total energy  :     9617.16637    9617.16637 (AU)
   temperature   :        0.00000       0.00000 (K )
   enthalpy      :     9617.16637    9617.16637 (AU)
   econs         :     9617.16637    9617.16637 (AU)
   pressure      :        0.00000       0.00000 (Gpa)
   volume        :    83585.16658   83585.16658 (AU)

     Small boxes:

     Low-level routines:
                                        0.56s GPU  (      33 calls)
                                        0.09s GPU  (      11 calls)
                                       56.53s GPU  (    3267 calls)

   This run was terminated on:   8: 8: 7  30Apr2023

   JOB DONE.
##IPMv2.0.6########################################################
#
# command   : /jet/home/hpeng1/qe_john/builds/qe-7.1-PSC-ompi-O3-with-scalapack-21.9/bin/cp.x -inp ./cp.in
# start     : Sun Apr 30 08:02:49 2023   host      : v005.ib.bridges
# mem [GB]  : 36.25                      gflop/sec : 0.00
#
#           :       [total]        <avg>          min          max
# %wall     :
# #calls    :
# mem [GB]  :         36.25         9.06         9.00         9.25
#
#                             [time]        [count]        <%wall>
# MPI_Comm_free                 0.00              4           0.00
# MPI_Comm_create               0.00              1           0.00
# MPI_Comm_split                0.00              2           0.00
# MPI_Comm_dup                  0.00              1           0.00
# MPI_Comm_group                0.00              1           0.00
# MPI_Comm_size                 0.00              1           0.00
# MPI_Init                      0.00              4           0.00
# MPI_Finalize                  0.00              4           0.00
# MPI_Comm_rank                 0.00              2           0.00
#